20200203 21240 21240 21240 21240 6950 14761800 0.00 0.23 -10.00 16 6934 0.00 1.90
20200123 24550 24920 23180 23600 31577 75993711 7.05 0.97 -4.38 18784 12793 1.47 8.61
20200122 25080 25090 24500 24680 26983 66709000
20200121 25990 25990 25070 25130 30179 76768000
20200120 25600 26100 25300 25930 31409 81012000
20200117 25910 26080 25530 25570 33173 85470000
20200116 26370 26480 25830 25860 41135 107302000
20200115 26990 26990 26230 26330 49365 131016000
20200114 27450 27700 26950 27060 51784 141585000
20200113 27200 27800 27200 27590 39373 108474000
20200110 27110 27910 27110 27360 45105 123891000
20200109 27600 27950 27250 27370 66275 182546000
20200108 28990 28990 27500 27500 109451 307517000
20200107 29200 29800 29040 29270 116954 343674000
20200106 31000 31960 29100 30170 196201 589419000
20200103 32030 32030 31030 32030 49242 157626000
20200102 29120 29120 29120 29120 4169 12138000
20191231 22060 26470 22060 26470 3949 10436000
